2237799083635215598506,14,1,2,01,4,1,2,06,8,1,2,07,14,1,2,010,12,1,2,013,15,1,2,09,4,1,2,011,1,1,2,05,8,1,2,08,7,1,2,06,6,1,2,01,4,1,2,01,8,1,2,08,3,1,2,04,9,1,2,015,15,1,2,09,3,1,2,08,7,1,2,01,3,1,2,05,2,1,2,03,11,1,2,012,10,1,2,010,2,1,2,010,15,1,2,011,2,1,2,04,5,1,2,05,2,1,2,08,3,1,2,014,2,1,2,01,2,1,2,013,10,1,2,08,13,1,2,02,15,1,2,06,8,1,2,012,6,1,2,07,9,1,2,04,4,1,2,013,13,1,2,04,4,1,2,01,13,1,2,04,13,1,2,01,8,1,2,08,12,1,2,05,15,1,2,014,2,1,2,07,10,1,2,08,14,1,2,014,4,1,2,09,11,1,2,012,11,1,2,0